p cnf 30 28
-1 29 0 
-2 8 24 29 0 
-3 29 0 
-4 18 29 0 
-5 29 0 
-6 29 0 
-7 29 0 
-8 2 24 29 0 
-9 29 0 
-10 29 0 
-11 29 0 
-12 29 0 
-13 29 0 
-14 29 0 
-15 29 0 
-16 29 0 
-17 29 0 
-18 4 29 0 
-19 29 0 
-20 29 0 
-21 -22 -23 30 -19 0 
-24 2 8 29 0 
-21 -22 30 -19 0 
-25 29 0 
-5 -17 -13 29 0 
-5 -7 -26 29 0 
-7 -10 -27 29 0 
-10 -14 -28 29 0 
